100
1000
393
393
391
390
390
388
386
386
385
385
385
384
379
378
377
376
375
374
373
372
368
367
367
366
366
365
364
364
362
362
361
358
356
355
355
353
352
352
350
348
348
346
345
342
342
341
340
337
337
336
335
332
332
332
331
328
327
326
324
322
322
320
320
319
318
316
315
312
311
307
307
305
305
305
304
304
303
299
298
297
296
296
295
291
291
291
288
287
283
282
282
282
280
278
277
276
275
272
266
266
